param M := 3;  # Number of characters of the first string s
param N := 4;  # Number of characters of the second string t

param: STRINGS : S_STRING   T_STRING:=
            1 "T"             "A"
            2 "A"             "C"
            3 "C"             "T"
            4 .               "D";
end;